min: c;

c = 3.14990153042938 * u5_t4_h2 + 3.14990153042938 * u5_t7_h2 + 3.46441905938436 * u5_t4_h3 + 3.46441905938436 * u5_t7_h3 + 3.1026612220287 * u5_t1_h4 + 3.1026612220287 * u5_t3_h4 + 3.1026612220287 * u5_t4_h4 + 3.1026612220287 * u5_t7_h4 + 3.09868422918283 * u5_t1_h5 + 3.09868422918283 * u5_t3_h5 + 3.09868422918283 * u5_t4_h5 + 3.09868422918283 * u5_t7_h5 + 4.18267188465264 * u5_t1_h6 + 4.18267188465264 * u5_t3_h6 + 4.18267188465264 * u5_t4_h6 + 4.18267188465264 * u5_t6_h6 + 4.18267188465264 * u5_t7_h6 + 3.86111393247601 * u5_t1_h7 + 3.86111393247601 * u5_t3_h7 + 3.86111393247601 * u5_t4_h7 + 3.86111393247601 * u5_t6_h7 + 5.87052962457776 * u5_t1_h8 + 5.87052962457776 * u5_t3_h8 + 5.87052962457776 * u5_t4_h8 + 5.87052962457776 * u5_t6_h8 + 5.235809433592 * u5_t1_h9 + 5.235809433592 * u5_t3_h9 + 5.235809433592 * u5_t4_h9 + 5.235809433592 * u5_t6_h9 + 4.97907989525322 * u5_t1_h10 + 4.97907989525322 * u5_t3_h10 + 4.97907989525322 * u5_t4_h10 + 4.97907989525322 * u5_t6_h10 + 3.57248701016747 * u5_t1_h11 + 3.57248701016747 * u5_t3_h11 + 3.57248701016747 * u5_t4_h11 + 3.57248701016747 * u5_t6_h11 + 6.24284017313311 * u5_t1_h12 + 6.24284017313311 * u5_t3_h12 + 6.24284017313311 * u5_t4_h12 + 6.24284017313311 * u5_t6_h12 + 4.76998315800131 * u5_t1_h13 + 4.76998315800131 * u5_t3_h13 + 4.76998315800131 * u5_t4_h13 + 4.76998315800131 * u5_t6_h13 + 4.76998315800131 * u5_t8_h13 + 5.43005441598648 * u5_t1_h14 + 5.43005441598648 * u5_t3_h14 + 5.43005441598648 * u5_t4_h14 + 5.43005441598648 * u5_t6_h14 + 5.43005441598648 * u5_t8_h14 + 5.81205479319756 * u5_t1_h15 + 5.81205479319756 * u5_t3_h15 + 5.81205479319756 * u5_t4_h15 + 5.81205479319756 * u5_t6_h15 + 5.81205479319756 * u5_t8_h15 + 5.81205479319756 * u5_t9_h15 + 6.13515314939848 * u5_t1_h16 + 6.13515314939848 * u5_t3_h16 + 6.13515314939848 * u5_t4_h16 + 6.13515314939848 * u5_t5_h16 + 6.13515314939848 * u5_t6_h16 + 6.13515314939848 * u5_t8_h16 + 6.13515314939848 * u5_t9_h16 + 5.97549873003446 * u5_t1_h17 + 5.97549873003446 * u5_t5_h17 + 5.97549873003446 * u5_t6_h17 + 5.97549873003446 * u5_t8_h17 + 5.97549873003446 * u5_t9_h17 + 5.97549873003446 * u5_t10_h17 + 6.02633092504768 * u5_t1_h18 + 6.02633092504768 * u5_t2_h18 + 6.02633092504768 * u5_t5_h18 + 6.02633092504768 * u5_t6_h18 + 6.02633092504768 * u5_t9_h18 + 6.02633092504768 * u5_t10_h18 + 6.00557955644299 * u5_t1_h19 + 6.00557955644299 * u5_t2_h19 + 6.00557955644299 * u5_t5_h19 + 6.00557955644299 * u5_t9_h19 + 6.00557955644299 * u5_t10_h19 + 5.11340272976789 * u5_t1_h20 + 5.11340272976789 * u5_t2_h20 + 5.11340272976789 * u5_t5_h20 + 5.11340272976789 * u5_t9_h20 + 5.11340272976789 * u5_t10_h20 + 5.23624795043844 * u5_t2_h21 + 5.23624795043844 * u5_t5_h21 + 5.23624795043844 * u5_t9_h21 + 5.23624795043844 * u5_t10_h21 + 6.05538163467397 * u5_t2_h22 + 6.05538163467397 * u5_t5_h22 + 6.05538163467397 * u5_t9_h22 + 6.05538163467397 * u5_t10_h22 + 5.92183833222785 * u5_t5_h23 + 5.92183833222785 * u5_t9_h23 + 5.92183833222785 * u5_t10_h23;
0 <= u5_t1_h4 <= 1;
0 <= u5_t1_h5 <= 1;
0 <= u5_t1_h6 <= 1;
0 <= u5_t1_h7 <= 1;
0 <= u5_t1_h8 <= 1;
0 <= u5_t1_h9 <= 1;
0 <= u5_t1_h10 <= 1;
0 <= u5_t1_h11 <= 1;
0 <= u5_t1_h12 <= 1;
0 <= u5_t1_h13 <= 1;
0 <= u5_t1_h14 <= 1;
0 <= u5_t1_h15 <= 1;
0 <= u5_t1_h16 <= 1;
0 <= u5_t1_h17 <= 1;
0 <= u5_t1_h18 <= 1;
0 <= u5_t1_h19 <= 1;
0 <= u5_t1_h20 <= 1;
u5_t1_h4 + u5_t1_h5 + u5_t1_h6 + u5_t1_h7 + u5_t1_h8 + u5_t1_h9 + u5_t1_h10 + u5_t1_h11 + u5_t1_h12 + u5_t1_h13 + u5_t1_h14 + u5_t1_h15 + u5_t1_h16 + u5_t1_h17 + u5_t1_h18 + u5_t1_h19 + u5_t1_h20 = 1;
0 <= u5_t2_h18 <= 1;
0 <= u5_t2_h19 <= 1;
0 <= u5_t2_h20 <= 1;
0 <= u5_t2_h21 <= 1;
0 <= u5_t2_h22 <= 1;
u5_t2_h18 + u5_t2_h19 + u5_t2_h20 + u5_t2_h21 + u5_t2_h22 = 3;
0 <= u5_t3_h4 <= 1;
0 <= u5_t3_h5 <= 1;
0 <= u5_t3_h6 <= 1;
0 <= u5_t3_h7 <= 1;
0 <= u5_t3_h8 <= 1;
0 <= u5_t3_h9 <= 1;
0 <= u5_t3_h10 <= 1;
0 <= u5_t3_h11 <= 1;
0 <= u5_t3_h12 <= 1;
0 <= u5_t3_h13 <= 1;
0 <= u5_t3_h14 <= 1;
0 <= u5_t3_h15 <= 1;
0 <= u5_t3_h16 <= 1;
u5_t3_h4 + u5_t3_h5 + u5_t3_h6 + u5_t3_h7 + u5_t3_h8 + u5_t3_h9 + u5_t3_h10 + u5_t3_h11 + u5_t3_h12 + u5_t3_h13 + u5_t3_h14 + u5_t3_h15 + u5_t3_h16 = 1;
0 <= u5_t4_h2 <= 1;
0 <= u5_t4_h3 <= 1;
0 <= u5_t4_h4 <= 1;
0 <= u5_t4_h5 <= 1;
0 <= u5_t4_h6 <= 1;
0 <= u5_t4_h7 <= 1;
0 <= u5_t4_h8 <= 1;
0 <= u5_t4_h9 <= 1;
0 <= u5_t4_h10 <= 1;
0 <= u5_t4_h11 <= 1;
0 <= u5_t4_h12 <= 1;
0 <= u5_t4_h13 <= 1;
0 <= u5_t4_h14 <= 1;
0 <= u5_t4_h15 <= 1;
0 <= u5_t4_h16 <= 1;
u5_t4_h2 + u5_t4_h3 + u5_t4_h4 + u5_t4_h5 + u5_t4_h6 + u5_t4_h7 + u5_t4_h8 + u5_t4_h9 + u5_t4_h10 + u5_t4_h11 + u5_t4_h12 + u5_t4_h13 + u5_t4_h14 + u5_t4_h15 + u5_t4_h16 = 3;
0 <= u5_t5_h16 <= 1;
0 <= u5_t5_h17 <= 1;
0 <= u5_t5_h18 <= 1;
0 <= u5_t5_h19 <= 1;
0 <= u5_t5_h20 <= 1;
0 <= u5_t5_h21 <= 1;
0 <= u5_t5_h22 <= 1;
0 <= u5_t5_h23 <= 1;
u5_t5_h16 + u5_t5_h17 + u5_t5_h18 + u5_t5_h19 + u5_t5_h20 + u5_t5_h21 + u5_t5_h22 + u5_t5_h23 = 2;
0 <= u5_t6_h6 <= 1;
0 <= u5_t6_h7 <= 1;
0 <= u5_t6_h8 <= 1;
0 <= u5_t6_h9 <= 1;
0 <= u5_t6_h10 <= 1;
0 <= u5_t6_h11 <= 1;
0 <= u5_t6_h12 <= 1;
0 <= u5_t6_h13 <= 1;
0 <= u5_t6_h14 <= 1;
0 <= u5_t6_h15 <= 1;
0 <= u5_t6_h16 <= 1;
0 <= u5_t6_h17 <= 1;
0 <= u5_t6_h18 <= 1;
u5_t6_h6 + u5_t6_h7 + u5_t6_h8 + u5_t6_h9 + u5_t6_h10 + u5_t6_h11 + u5_t6_h12 + u5_t6_h13 + u5_t6_h14 + u5_t6_h15 + u5_t6_h16 + u5_t6_h17 + u5_t6_h18 = 2;
0 <= u5_t7_h2 <= 1;
0 <= u5_t7_h3 <= 1;
0 <= u5_t7_h4 <= 1;
0 <= u5_t7_h5 <= 1;
0 <= u5_t7_h6 <= 1;
u5_t7_h2 + u5_t7_h3 + u5_t7_h4 + u5_t7_h5 + u5_t7_h6 = 1;
0 <= u5_t8_h13 <= 1;
0 <= u5_t8_h14 <= 1;
0 <= u5_t8_h15 <= 1;
0 <= u5_t8_h16 <= 1;
0 <= u5_t8_h17 <= 1;
u5_t8_h13 + u5_t8_h14 + u5_t8_h15 + u5_t8_h16 + u5_t8_h17 = 3;
0 <= u5_t9_h15 <= 1;
0 <= u5_t9_h16 <= 1;
0 <= u5_t9_h17 <= 1;
0 <= u5_t9_h18 <= 1;
0 <= u5_t9_h19 <= 1;
0 <= u5_t9_h20 <= 1;
0 <= u5_t9_h21 <= 1;
0 <= u5_t9_h22 <= 1;
0 <= u5_t9_h23 <= 1;
u5_t9_h15 + u5_t9_h16 + u5_t9_h17 + u5_t9_h18 + u5_t9_h19 + u5_t9_h20 + u5_t9_h21 + u5_t9_h22 + u5_t9_h23 = 1;
0 <= u5_t10_h17 <= 1;
0 <= u5_t10_h18 <= 1;
0 <= u5_t10_h19 <= 1;
0 <= u5_t10_h20 <= 1;
0 <= u5_t10_h21 <= 1;
0 <= u5_t10_h22 <= 1;
0 <= u5_t10_h23 <= 1;
u5_t10_h17 + u5_t10_h18 + u5_t10_h19 + u5_t10_h20 + u5_t10_h21 + u5_t10_h22 + u5_t10_h23 = 1;
